Geometry = GenFormat {
62  C
Si  F
1 1    0.1175966026E+02    0.2098099183E+02    0.2807784146E+02
2 1    0.1429876647E+02    0.1342114377E+02    0.2683764336E+02
3 1    0.1878878728E+02    0.1964639497E+02    0.2434340628E+02
4 1    0.1650115684E+02    0.1806081591E+02    0.2932507302E+02
5 1    0.1293579698E+02    0.2085464247E+02    0.3018977922E+02
6 1    0.1553867918E+02    0.1357008059E+02    0.2891118366E+02
7 1    0.1978611182E+02    0.1972211391E+02    0.2654773631E+02
8 1    0.1765173828E+02    0.1809392728E+02    0.3147890186E+02
9 1    0.1314631600E+02    0.1716895314E+02    0.2739016014E+02
10 1    0.1516913556E+02    0.2172447246E+02    0.2992451579E+02
11 1    0.1775694199E+02    0.1425915208E+02    0.2827519435E+02
12 1    0.1950095321E+02    0.1960314608E+02    0.3139643731E+02
13 1    0.1651063359E+02    0.1891039215E+02    0.2468652592E+02
14 1    0.1423772704E+02    0.1721312101E+02    0.2957993148E+02
15 1    0.1650541308E+02    0.1666668400E+02    0.2560343527E+02
16 1    0.1434116099E+02    0.1496604959E+02    0.3047067480E+02
17 1    0.1849193890E+02    0.2134135560E+02    0.2777376697E+02
18 1    0.1615212955E+02    0.1880203408E+02    0.3319756603E+02
19 1    0.1518853816E+02    0.2021262397E+02    0.2625243521E+02
20 1    0.1270924609E+02    0.1856625158E+02    0.3090550345E+02
21 1    0.1992354343E+02    0.1748995562E+02    0.2744978174E+02
22 1    0.1845955189E+02    0.1590988680E+02    0.3200938789E+02
23 1    0.1291325321E+02    0.1945314575E+02    0.2659990350E+02
24 1    0.1768049285E+02    0.1663465604E+02    0.2774969184E+02
25 1    0.1431985902E+02    0.1565351635E+02    0.2590686432E+02
26 1    0.1637942583E+02    0.2030014458E+02    0.2838840200E+02
27 2    0.1022707301E+02    0.2061862547E+02    0.2820501343E+02
28 2    0.1180131740E+02    0.2244045870E+02    0.2747007923E+02
29 2    0.1490887253E+02    0.1236742229E+02    0.2583073753E+02
30 2    0.1280506831E+02    0.1296105177E+02    0.2707947502E+02
31 2    0.1884235935E+02    0.2103751163E+02    0.2359622476E+02
32 2    0.1953888575E+02    0.1862670354E+02    0.2339536206E+02
33 2    0.1217759988E+02    0.2178304157E+02    0.3125202484E+02
34 2    0.1563964438E+02    0.1210540767E+02    0.2955126935E+02
35 2    0.2128039156E+02    0.2028246427E+02    0.2641237792E+02
36 2    0.1170768405E+02    0.1657070304E+02    0.2768914576E+02
37 2    0.1511707425E+02    0.2318606485E+02    0.2933087296E+02
38 2    0.1600409895E+02    0.2184850928E+02    0.3125971753E+02
39 2    0.1898139842E+02    0.1388269709E+02    0.2919212401E+02
40 2    0.1806263236E+02    0.1354190846E+02    0.2689867095E+02
41 2    0.1998178824E+02    0.1975511615E+02    0.2989861251E+02
42 2    0.2067738389E+02    0.1902545453E+02    0.3227087320E+02
43 2    0.1909096262E+02    0.2101715822E+02    0.3195212309E+02
44 2    0.1570699723E+02    0.1885924793E+02    0.2331722973E+02
45 2    0.1738686214E+02    0.1573650864E+02    0.2466810172E+02
46 2    0.1495613339E+02    0.1502899887E+02    0.3192435086E+02
47 2    0.1287054926E+02    0.1442694044E+02    0.3066570693E+02
48 2    0.1810774410E+02    0.2247315924E+02    0.2673737109E+02
49 2    0.1915362998E+02    0.2211874664E+02    0.2897360811E+02
50 2    0.1500605964E+02    0.1968219847E+02    0.3255752218E+02
51 2    0.1694651884E+02    0.1965952253E+02    0.3425402130E+02
52 2    0.1550694570E+02    0.1756160063E+02    0.3391970318E+02
53 2    0.1514897632E+02    0.2172395480E+02    0.2577158075E+02
54 2    0.1277426665E+02    0.1822143567E+02    0.3244129491E+02
55 2    0.1126167000E+02    0.1810786233E+02    0.3046153995E+02
56 2    0.2069654631E+02    0.1736703282E+02    0.2882189794E+02
57 2    0.2069965363E+02    0.1654601383E+02    0.2645077790E+02
58 2    0.1996146731E+02    0.1574909598E+02    0.3156796689E+02
59 2    0.1758072332E+02    0.1483332477E+02    0.3125661762E+02
60 2    0.1835097418E+02    0.1568357064E+02    0.3356486371E+02
61 2    0.1221647532E+02    0.1939130991E+02    0.2517371021E+02
62 2    0.1357712421E+02    0.1570180574E+02    0.2450350771E+02
}
Driver = SecondDerivatives {
  Atoms = "1:-1"
  Delta = 1.000000000000000E-004
}
Hamiltonian = DFTB {
  SCC = Yes
  Dispersion = LennardJones {
    Parameters = UFFParameters {}
  }
  SlaterKosterFiles = Type2FileNames {
    Prefix = "/budgetdata/academic/alexeyak/brendan/Si_QD/pbc-0-3/"
    Separator = "-"
    Suffix = ".skf"
    LowerCaseTypeName = No
  }
  MaxAngularMomentum = {
    Si = "d"
    F = "p"
  }
  Filling = Fermi {
    Temperature [K] = 0
  }
  Differentiation = FiniteDiff {
    Delta = 1.000000000000000E-002
  }
  PolynomialRepulsive = {}
  ShellResolvedSCC = No
  OldSKInterpolation = No
  RangeSeparated = None {}
  ReadInitialCharges = No
  InitialCharges = {}
  SCCTolerance = 1.000000000000000E-005
  Mixer = Broyden {
    MixingParameter = 0.200000000000000
    InverseJacobiWeight = 1.000000000000000E-002
    MinimalWeight = 1.00000000000000
    MaximalWeight = 100000.000000000
    WeightFactor = 1.000000000000000E-002
  }
  HCorrection = None {}
  SpinPolarisation = {}
  ElectricField = {}
  Solver = RelativelyRobust {}
  Charge = 0.00000000000000
  MaxSCCIterations = 100
  OnSiteCorrection = {}
  ThirdOrder = No
  ThirdOrderFull = No
  ForceEvaluation = "Traditional"
}
Analysis = {
  ProjectStates = {}
  WriteEigenvectors = No
  WriteBandOut = Yes
  MullikenAnalysis = Yes
  AtomResolvedEnergies = No
  CalculateForces = No
}
Options = {
  WritedetailedOut = Yes
  WriteAutotestTag = No
  WriteDetailedXML = No
  WriteResultsTag = No
  RestartFrequency = 20
  RandomSeed = 0
  WriteHS = No
  WriteRealHS = No
  MinimiseMemoryUsage = No
  ShowFoldedCoords = No
  TimingVerbosity = 1
  WriteChargesAsText = No
}
ParserOptions = {
  ParserVersion = 7
  WriteHSDInput = Yes
  WriteXMLInput = No
  StopAfterParsing = No
  IgnoreUnprocessedNodes = No
}
ExcitedState = {}
